experiment/data/lkh-res/Vrp-Set-X-n101/Vrp-Set-X-n101-lkh/0.lkh1.vrp
NAME : 0
COMMENT : CVRP Instance
TYPE : CVRP
DIMENSION : 101
EDGE_WEIGHT_TYPE : EUC_2D
CAPACITY : 206
NODE_COORD_SECTION
1	36500	68900
2	14600	18000
3	79200	500
4	65800	51000
5	46100	27000
6	29900	53100
7	81200	22800
8	64300	9000
9	61500	63000
10	25800	4200
11	61600	29900
12	47500	95700
13	42500	47300
14	40600	6400
15	65600	36900
16	20200	46700
17	31800	2100
18	57900	58700
19	45800	35400
20	57500	87100
21	4700	51200
22	56800	74200
23	12800	43600
24	54600	80600
25	19700	69600
26	61500	30000
27	85200	56300
28	77200	80300
29	67800	34200
30	91600	17600
31	39000	94900
32	11300	78200
33	22600	73600
34	11900	92300
35	58400	57200
36	13400	55400
37	91200	17300
38	82700	23300
39	85100	67700
40	59800	32200
41	62700	47200
42	9400	44200
43	68800	27400
44	97700	17600
45	59700	46100
46	93100	2300
47	17000	64000
48	94100	60100
49	87300	48700
50	79700	9500
51	45100	81600
52	86600	97000
53	83300	91200
54	10600	91300
55	26000	10700
56	33200	4500
57	68500	61300
58	72800	37200
59	48700	49700
60	70200	44000
61	71700	41200
62	63500	79400
63	92700	97200
64	63500	35600
65	63400	54000
66	65800	26100
67	30300	16800
68	70700	41000
69	25400	13500
70	34600	2900
71	7500	7900
72	89300	98700
73	72900	37200
74	2900	91000
75	35600	3900
76	27400	94300
77	32200	9600
78	66400	39600
79	70400	23600
80	41500	83700
81	57600	58700
82	75000	97700
83	72600	36300
84	86100	94800
85	30200	12900
86	41500	98900
87	19900	13500
88	80100	40500
89	67900	42600
90	99400	80400
91	31100	11600
92	73900	89800
93	26800	9700
94	17600	99100
95	68800	58800
96	10700	83600
97	70800	52200
98	67900	86400
99	98500	87700
100	95400	95000
101	61500	75000
DEMAND_SECTION
1	0
2	38
3	51
4	73
5	70
6	58
7	54
8	1
9	98
10	62
11	98
12	25
13	86
14	46
15	27
16	17
17	97
18	74
19	81
20	62
21	59
22	23
23	62
24	66
25	35
26	53
27	18
28	87
29	32
30	4
31	61
32	95
33	23
34	15
35	5
36	53
37	97
38	70
39	32
40	27
41	42
42	67
43	76
44	15
45	39
46	14
47	43
48	11
49	93
50	53
51	44
52	80
53	87
54	97
55	67
56	72
57	50
58	8
59	58
60	55
61	67
62	89
63	38
64	65
65	3
66	5
67	46
68	100
69	52
70	28
71	96
72	18
73	16
74	7
75	73
76	76
77	6
78	64
79	39
80	86
81	70
82	14
83	83
84	96
85	43
86	12
87	73
88	2
89	21
90	18
91	55
92	75
93	68
94	100
95	61
96	24
97	40
98	48
99	51
100	78
101	35
DEPOT_SECTION
1
-1
EOF
