experiment/data/lkh-res/Vrp-Set-X-n101/Vrp-Set-X-n101-lkh/0.lkh1.tour
NAME : 0.3101145.tour
COMMENT : Length = 3101145
COMMENT : Found by LKH-3 [Keld Helsgaun] Tue Apr  9 03:05:23 2024
TYPE : TOUR
DIMENSION : 125
TOUR_SECTION
1
33
25
96
54
34
86
124
60
11
26
125
15
29
83
78
108
24
101
28
27
113
35
4
41
13
109
40
50
7
38
88
102
51
20
94
122
56
71
2
103
80
12
32
117
8
3
46
44
30
37
73
58
119
100
52
98
107
84
53
22
106
64
66
79
43
89
115
85
91
77
70
75
118
76
31
99
90
114
9
57
59
110
81
49
48
39
112
61
68
45
116
14
17
10
104
6
67
21
47
105
92
82
72
63
95
123
62
97
65
18
111
55
93
5
121
87
69
19
120
16
23
42
36
74
-1
EOF
